1 11 3 77 66 6 18 95 47 56 20 88 13 14 16 84 96 32 22 64 38 30 23 25 78 8 28 27 50 74 86 55 35 62 91 42 4 37 9 31 7 49 85 46 58 53 2 51 12 17 76 36 97 33 98 10 59 60 61 81 41 19 65 71 48 26 5 70 45 73 29 92 69 67 52 79 54 40 83 39 89 57 87 24 43 44 80 93 94 21 63 75 68 100 